p cnf 8 22
1 2 3 4 0
5 6 7 8 0
-1 -2 0
-1 -3 0
-1 -4 0
-2 -3 0
-2 -4 0
-3 -4 0
-5 -6 0
-5 -7 0
-5 -8 0
-6 -7 0
-6 -8 0
-7 -8 0
-1 6 7 8 0
-5 2 3 4 0
-2 5 7 8 0
-6 1 3 4 0
-3 5 6 8 0
-7 1 2 4 0
-4 5 6 7 0
-8 1 2 3 0